local_stuff/loop_inv_stuff/loop_inv_oai/repo/z3/87.out
STDOUT:
(error "line 5 column 54: unknown constant lock")
unknown
(error "line 14 column 10: model is not available")


STDERR:
